7
Lattice="2.8326923847198486 0.0 -0.7123542428016663 -0.7044782638549805 4.941079616546631 -2.799057722091675 0.0 0.0 5.98594856262207" Properties=species:S:1:pos:R:3 pbc="T T T"
Nb       0.96579706       0.65920102       5.32737698
O        1.11103182       2.58145924      -0.08513801
Na       2.21004602       3.50931443      -1.70920682
Nb       1.56903570       2.02324901       1.72314617
O        2.02115091       1.10179223       3.53021906
O       -0.04586822       0.63207779       1.30410037
O        0.30570922       3.49786589       2.68944012
20
Lattice="6.5958685874938965 0.0 3.045764923095703 2.129441261291504 6.273486137390137 3.2885029315948486 0.0 0.0 7.644921779632568" Properties=species:S:1:pos:R:3 pbc="T T T"
Na       5.38139689       1.30158849       3.65079868
O        8.10794834       5.31513363       6.36513729
Na       4.66476712       4.74213357       9.80469801
Na       1.93398357       3.50341664       4.82666676
O        3.34362376       0.34229792       4.92305922
O        5.13960025       3.45769710       5.20372106
O        2.90143038       1.27364843       5.63337405
Na       7.55427505       4.08716566      11.96362554
O        6.29148175       5.97441443      11.16869426
O        3.83803260       1.29971894       9.42497841
O        6.34423370       3.37902096       8.74236449
Na       4.81920105       2.28114735       7.29281974
O        2.54433943       5.96349795      10.57052182
O        6.52719857       3.02393320      10.03239533
O        3.19316181       3.96001413       8.02728490
O        4.26976861       3.40666702       4.18715643
O        3.40650245       0.21797151       8.84121379
O        2.65260826       4.51617879       6.94360194
O        1.06295570       2.18117222       2.82991473
O        6.71918856       1.37465869       5.96432549
4
Lattice="2.989419937133789 0.0 0.6147681474685669 1.4334224462509155 2.6228132247924805 0.6145254373550415 0.0 0.0 7.5582380294799805" Properties=species:S:1:pos:R:3 pbc="T T T"
Nb       3.80368308       1.68959446       4.62253554
Nb       2.80003580       1.09493789       1.95083324
Nb       1.82502457       2.28925327       6.66248431
O        1.59512100       0.38094703       7.77800137
9
Lattice="5.1167988777160645 0.0 0.00954520795494318 -2.5720601081848145 4.420851707458496 0.010603278875350952 0.0 0.0 5.606204986572266" Properties=species:S:1:pos:R:3 pbc="T T T"
Si       4.34357134       0.16961528       4.14235835
O        4.02226345       1.45610314       5.08019776
O        2.09574726       3.30257481       5.08314860
Si       1.78584560       0.16535375       2.26748695
O       -1.09687107       3.29725547       1.34173900
Si       3.06121482       2.37941315       0.41155925
O        0.51098860       0.53285254       3.20482600
O        2.09835254       1.45507271       1.33979872
O        0.49425422       4.22214624       3.21450314
